instances/p2/p2_10_3-2.dzn
Alphabet = {A,C,G,T};
ns = 10;
nc = 3;
neighbours = [| I(A),I(A),Null | I(T),Null,Null | I(G),I(T),I(C) | I(G),I(A),I(T) | I(T),I(G),Null | I(G),I(A),I(A) | I(G),Null,Null | I(A),I(G),Null | I(G),I(G),Null | I(G),I(C),I(C) |];
