instances/p2/p2_10_3-2.txt
{
	"num_strings": 10,
	"alphabet": "ACGT",
	"strings": [
		"AA",
		"T",
		"GTC",
		"GAT",
		"TG",
		"GAA",
		"G",
		"AG",
		"GG",
		"GCC"
	],
	"str_length":[2,1,3,3,2,3,1,2,2,3]
}